train/id=882_n=25_m=106.cnf
p cnf 25 106
16 21 23 0
4 -17 24 0
14 -20 -22 0
-19 20 25 0
11 -19 -23 0
2 -9 -12 0
1 4 24 0
-5 -15 -21 0
5 9 13 0
10 -13 17 0
-4 -12 -18 0
-3 -5 -9 0
-5 -17 23 0
-6 -17 23 0
-13 14 22 0
-6 -8 -15 0
-7 23 -25 0
-2 16 18 0
5 -8 -9 0
-13 18 -25 0
-4 -5 17 0
-1 -10 20 0
-2 -11 12 0
3 13 14 0
8 -9 -11 0
8 -10 -20 0
5 -11 18 0
-6 -9 -15 0
-6 7 -15 0
-15 19 25 0
-3 5 22 0
-3 -13 -17 0
-6 -20 23 0
-2 -4 6 0
10 17 -18 0
-4 16 -22 0
9 24 -25 0
-10 16 17 0
12 17 25 0
-11 12 20 0
-10 -14 -15 0
10 11 -14 0
-7 -12 21 0
1 2 24 0
21 -22 23 0
6 -21 -25 0
10 17 -22 0
-1 12 -13 0
-15 -17 -21 0
16 17 -21 0
-1 -9 13 0
1 9 -12 0
-6 -11 -21 0
-6 -19 -20 0
3 -9 20 0
1 -2 -14 0
-1 12 20 0
-6 10 -16 0
2 -13 -23 0
22 23 25 0
21 23 -24 0
1 5 24 0
-9 -13 -14 0
-10 13 24 0
-6 12 -16 0
-5 -6 11 0
3 6 10 0
12 -13 20 0
-7 -12 -22 0
-3 -15 23 0
-5 14 -25 0
-4 -5 -20 0
10 -13 -20 0
-8 -11 12 0
4 5 21 0
-1 -16 -17 0
-7 -23 25 0
6 23 -24 0
3 18 20 0
-3 11 21 0
-7 20 24 0
12 -18 -21 0
5 7 23 0
4 -13 -19 0
3 -10 -16 0
6 -22 25 0
-7 20 -24 0
-13 21 -23 0
2 -13 -22 0
4 17 25 0
5 -14 -24 0
-5 -6 22 0
4 -11 -12 0
-7 -14 -20 0
-1 7 21 0
6 17 18 0
10 -24 25 0
4 11 -19 0
-1 14 -20 0
-1 4 -7 0
1 9 15 0
1 2 -14 0
10 -18 -21 0
-1 20 -22 0
-5 -7 -12 0
2 -15 25 0
