train/id=882_n=25_m=106.wcnf
p wcnf 25 106 1000
1000 16 21 23 0
1000 4 -17 24 0
1000 14 -20 -22 0
1000 -19 20 25 0
1000 11 -19 -23 0
33 2 -9 -12 0
1000 1 4 24 0
1000 -5 -15 -21 0
1000 5 9 13 0
1000 10 -13 17 0
1000 -4 -12 -18 0
98 -3 -5 -9 0
92 -5 -17 23 0
31 -6 -17 23 0
1000 -13 14 22 0
1000 -6 -8 -15 0
1000 -7 23 -25 0
1000 -2 16 18 0
1000 5 -8 -9 0
1000 -13 18 -25 0
1000 -4 -5 17 0
1000 -1 -10 20 0
1000 -2 -11 12 0
1000 3 13 14 0
84 8 -9 -11 0
1000 8 -10 -20 0
1000 5 -11 18 0
1000 -6 -9 -15 0
91 -6 7 -15 0
80 -15 19 25 0
1000 -3 5 22 0
1000 -3 -13 -17 0
1000 -6 -20 23 0
1000 -2 -4 6 0
1000 10 17 -18 0
1000 -4 16 -22 0
25 9 24 -25 0
1000 -10 16 17 0
1000 12 17 25 0
1000 -11 12 20 0
81 -10 -14 -15 0
1000 10 11 -14 0
1000 -7 -12 21 0
1000 1 2 24 0
1000 21 -22 23 0
1000 6 -21 -25 0
1000 10 17 -22 0
1000 -1 12 -13 0
89 -15 -17 -21 0
1000 16 17 -21 0
1000 -1 -9 13 0
1000 1 9 -12 0
1000 -6 -11 -21 0
80 -6 -19 -20 0
1000 3 -9 20 0
1000 1 -2 -14 0
1000 -1 12 20 0
1000 -6 10 -16 0
13 2 -13 -23 0
1000 22 23 25 0
1000 21 23 -24 0
75 1 5 24 0
38 -9 -13 -14 0
1000 -10 13 24 0
98 -6 12 -16 0
1000 -5 -6 11 0
1000 3 6 10 0
85 12 -13 20 0
1000 -7 -12 -22 0
1000 -3 -15 23 0
1000 -5 14 -25 0
1000 -4 -5 -20 0
1000 10 -13 -20 0
1000 -8 -11 12 0
1000 4 5 21 0
66 -1 -16 -17 0
1000 -7 -23 25 0
25 6 23 -24 0
83 3 18 20 0
61 -3 11 21 0
93 -7 20 24 0
39 12 -18 -21 0
1000 5 7 23 0
1000 4 -13 -19 0
1000 3 -10 -16 0
67 6 -22 25 0
1000 -7 20 -24 0
60 -13 21 -23 0
34 2 -13 -22 0
1000 4 17 25 0
1000 5 -14 -24 0
56 -5 -6 22 0
1000 4 -11 -12 0
1000 -7 -14 -20 0
1000 -1 7 21 0
93 6 17 18 0
34 10 -24 25 0
1000 4 11 -19 0
1000 -1 14 -20 0
1000 -1 4 -7 0
1000 1 9 15 0
1000 1 2 -14 0
2 10 -18 -21 0
1000 -1 20 -22 0
100 -5 -7 -12 0
1000 2 -15 25 0
